(set-logic FO)
(set-info :status unsat)
(declare-fun f (Term) Bool)
(declare-fun g (Term) Bool)
(declare-fun h (Term Term) Bool)
(declare-fun j (Term Term) Bool)
(declare-fun k (Term) Bool)
(declare-fun l (Term) Bool)
(assert (forall ((x Term)) (=> (and (f x) (forall ((y Term)) (=> (and (g y) (h x y)) (j x y)))) (forall ((y Term)) (and (g y) (=> (h x y) (k y)))))))
(assert (not (exists ((y Term)) (and (l y) (k y)))))
(assert (exists ((x Term)) (and (f x) (and (forall ((y Term)) (=> (h x y) (l y)) (forall ((y Term)) (=> (and (g y) (h x y)) (j x y))))))))
(assert (not (exists ((x Term)) (and (f x) (not (exists ((y Term)) (and (g y) (h x y))))))))
(check-sat)
(exit)
